solution status: optimal solution found
objective value:                     143181.176327661
d11(0,0)                                            1 	(obj:0)
d11(2,4)                                            1 	(obj:0)
d11(2,7)                                            1 	(obj:0)
d11(2,8)                                            1 	(obj:0)
d11(2,10)                                           1 	(obj:0)
d11(3,13)                                           1 	(obj:0)
d11(3,14)                                           1 	(obj:0)
d11(3,15)                                           1 	(obj:0)
d11(3,16)                                           1 	(obj:0)
d11(3,17)                                           1 	(obj:0)
d11(3,18)                                           1 	(obj:0)
d11(3,19)                                           1 	(obj:0)
d11(3,20)                                           1 	(obj:0)
d11(3,21)                                           1 	(obj:0)
d11(3,22)                                           1 	(obj:0)
d11(3,23)                                           1 	(obj:0)
d11(3,24)                                           1 	(obj:0)
d11(3,25)                                           1 	(obj:0)
d11(3,26)                                           1 	(obj:0)
d11(3,27)                                           1 	(obj:0)
d11(3,28)                                           1 	(obj:0)
d11(3,29)                                           1 	(obj:0)
d11(3,30)                                           1 	(obj:0)
d11(3,31)                                           1 	(obj:0)
d11(3,32)                                           1 	(obj:0)
d11(3,33)                                           1 	(obj:0)
d11(3,34)                                           1 	(obj:0)
d11(3,35)                                           1 	(obj:0)
d11(3,36)                                           1 	(obj:0)
d11(3,37)                                           1 	(obj:0)
d11(3,38)                                           1 	(obj:0)
d11(3,39)                                           1 	(obj:0)
d11(4,40)                                           1 	(obj:0)
d11(4,41)                                           1 	(obj:0)
d11(4,43)                                           1 	(obj:0)
d11(4,44)                                           1 	(obj:0)
d11(4,45)                                           1 	(obj:0)
d11(4,46)                                           1 	(obj:0)
d11(4,47)                                           1 	(obj:0)
d11(4,49)                                           1 	(obj:0)
d11(4,50)                                           1 	(obj:0)
d11(4,52)                                           1 	(obj:0)
d11(4,53)                                           1 	(obj:0)
d11(4,55)                                           1 	(obj:0)
d11(4,56)                                           1 	(obj:0)
d11(4,58)                                           1 	(obj:0)
d11(4,59)                                           1 	(obj:0)
d11(4,60)                                           1 	(obj:0)
d11(4,61)                                           1 	(obj:0)
d11(4,62)                                           1 	(obj:0)
d11(4,63)                                           1 	(obj:0)
d11(4,64)                                           1 	(obj:0)
d11(4,65)                                           1 	(obj:0)
d11(4,67)                                           1 	(obj:0)
d11(4,68)                                           1 	(obj:0)
d11(4,70)                                           1 	(obj:0)
d11(4,71)                                           1 	(obj:0)
d11(4,73)                                           1 	(obj:0)
d11(4,74)                                           1 	(obj:0)
d11(4,76)                                           1 	(obj:0)
d11(4,77)                                           1 	(obj:0)
d11(4,79)                                           1 	(obj:0)
d11(4,80)                                           1 	(obj:0)
d11(4,81)                                           1 	(obj:0)
d11(4,82)                                           1 	(obj:0)
d11(4,83)                                           1 	(obj:0)
d11(4,84)                                           1 	(obj:0)
d11(4,85)                                           1 	(obj:0)
d11(4,86)                                           1 	(obj:0)
d11(4,88)                                           1 	(obj:0)
d11(4,89)                                           1 	(obj:0)
d11(4,91)                                           1 	(obj:0)
d11(4,92)                                           1 	(obj:0)
d11(4,94)                                           1 	(obj:0)
d11(4,95)                                           1 	(obj:0)
d11(4,97)                                           1 	(obj:0)
d11(4,98)                                           1 	(obj:0)
d11(4,100)                                          1 	(obj:0)
d11(4,101)                                          1 	(obj:0)
d11(4,103)                                          1 	(obj:0)
d11(4,104)                                          1 	(obj:0)
d11(4,106)                                          1 	(obj:0)
d11(4,107)                                          1 	(obj:0)
d11(4,109)                                          1 	(obj:0)
d11(4,110)                                          1 	(obj:0)
d11(4,112)                                          1 	(obj:0)
d11(4,113)                                          1 	(obj:0)
d11(4,115)                                          1 	(obj:0)
d11(4,116)                                          1 	(obj:0)
d11(4,118)                                          1 	(obj:0)
d11(4,119)                                          1 	(obj:0)
d12(1,1)                                            1 	(obj:0)
d12(1,2)                                            1 	(obj:0)
d12(1,3)                                            1 	(obj:0)
d12(2,6)                                            1 	(obj:0)
d12(2,9)                                            1 	(obj:0)
d12(2,12)                                           1 	(obj:0)
d21(3,13)                                           1 	(obj:0)
d21(3,14)                                           1 	(obj:0)
d21(3,16)                                           1 	(obj:0)
d21(3,22)                                           1 	(obj:0)
d21(4,40)                                           1 	(obj:0)
d21(4,41)                                           1 	(obj:0)
d21(4,42)                                           1 	(obj:0)
d21(4,43)                                           1 	(obj:0)
d21(4,44)                                           1 	(obj:0)
d21(4,45)                                           1 	(obj:0)
d21(4,46)                                           1 	(obj:0)
d21(4,47)                                           1 	(obj:0)
d21(4,49)                                           1 	(obj:0)
d21(4,50)                                           1 	(obj:0)
d21(4,51)                                           1 	(obj:0)
d21(4,52)                                           1 	(obj:0)
d21(4,53)                                           1 	(obj:0)
d21(4,55)                                           1 	(obj:0)
d21(4,58)                                           1 	(obj:0)
d21(4,59)                                           1 	(obj:0)
d21(4,61)                                           1 	(obj:0)
d21(4,67)                                           1 	(obj:0)
d21(4,68)                                           1 	(obj:0)
d21(4,69)                                           1 	(obj:0)
d21(4,70)                                           1 	(obj:0)
d21(4,71)                                           1 	(obj:0)
d21(4,73)                                           1 	(obj:0)
d21(4,76)                                           1 	(obj:0)
d21(4,77)                                           1 	(obj:0)
d21(4,79)                                           1 	(obj:0)
d21(4,80)                                           1 	(obj:0)
d21(4,85)                                           1 	(obj:0)
d21(4,86)                                           1 	(obj:0)
d21(4,88)                                           1 	(obj:0)
d21(4,94)                                           1 	(obj:0)
d21(4,95)                                           1 	(obj:0)
d21(4,97)                                           1 	(obj:0)
d21(4,103)                                          1 	(obj:0)
d21(4,112)                                          1 	(obj:0)
STE(1,1)                                 6200.5138433 	(obj:0)
STE(0,0)                                         6300 	(obj:0)
STE(1,2)                             7052.74877614996 	(obj:0)
STE(1,3)                                   8093.67041 	(obj:0)
STE(2,4)                             4699.74783996671 	(obj:0)
STE(2,5)                                 5696.5138433 	(obj:0)
STE(2,6)                             6609.07717714998 	(obj:0)
STE(2,7)                             5551.98277281667 	(obj:0)
STE(2,8)                             6548.74877614996 	(obj:0)
STE(2,9)                             7461.31210999995 	(obj:0)
STE(2,10)                            6592.90440666671 	(obj:0)
STE(2,11)                                  7589.67041 	(obj:0)
STE(2,12)                            8502.23374384999 	(obj:0)
STE(3,13)                            1981.52963330004 	(obj:0)
STE(3,14)                            2978.29563663333 	(obj:0)
STE(3,15)                            4195.74783996671 	(obj:0)
STE(3,16)                            2978.29563663333 	(obj:0)
STE(3,17)                            3975.06163996662 	(obj:0)
STE(3,18)                                5192.5138433 	(obj:0)
STE(3,19)                            3890.85897048331 	(obj:0)
STE(3,20)                            4887.62497381661 	(obj:0)
STE(3,21)                            6105.07717714998 	(obj:0)
STE(3,22)                               2833.76456615 	(obj:0)
STE(3,23)                            3830.53056948329 	(obj:0)
STE(3,24)                            5047.98277281667 	(obj:0)
STE(3,25)                            3830.53056948329 	(obj:0)
STE(3,26)                            4827.29657281658 	(obj:0)
STE(3,27)                            6044.74877615002 	(obj:0)
STE(3,28)                            4743.09390333328 	(obj:0)
STE(3,29)                            5739.85990666657 	(obj:0)
STE(3,30)                            6957.31210999995 	(obj:0)
STE(3,31)                            3874.68620000004 	(obj:0)
STE(3,32)                            4871.45220333333 	(obj:0)
STE(3,33)                            6088.90440666671 	(obj:0)
STE(3,34)                            4871.45220333333 	(obj:0)
STE(3,35)                            5868.21820666662 	(obj:0)
STE(3,36)                                  7085.67041 	(obj:0)
STE(3,37)                            5784.01553718332 	(obj:0)
STE(3,38)                            6780.78154051661 	(obj:0)
STE(3,39)                            7998.23374384999 	(obj:0)
STE(4,40)                           -736.688573366583 	(obj:0)
STE(4,41)                            260.077429966707 	(obj:0)
STE(4,42)                            1477.52963330004 	(obj:0)
STE(4,43)                            260.077429966707 	(obj:0)
STE(4,44)                                1256.8434333 	(obj:0)
STE(4,45)                            2474.29563663338 	(obj:0)
STE(4,46)                            1477.52963330009 	(obj:0)
STE(4,47)                            2474.29563663338 	(obj:0)
STE(4,48)                            3691.74783996671 	(obj:0)
STE(4,49)                            260.077429966707 	(obj:0)
STE(4,50)                                1256.8434333 	(obj:0)
STE(4,51)                            2474.29563663333 	(obj:0)
STE(4,52)                                1256.8434333 	(obj:0)
STE(4,53)                            2253.60943663329 	(obj:0)
STE(4,54)                            3471.06163996662 	(obj:0)
STE(4,55)                            2474.29563663338 	(obj:0)
STE(4,56)                            3471.06163996667 	(obj:0)
STE(4,57)                                4688.5138433 	(obj:0)
STE(4,58)                            1172.64076381669 	(obj:0)
STE(4,59)                            2169.40676714999 	(obj:0)
STE(4,60)                            3386.85897048336 	(obj:0)
STE(4,61)                            2169.40676714999 	(obj:0)
STE(4,62)                            3166.17277048328 	(obj:0)
STE(4,63)                            4383.62497381666 	(obj:0)
STE(4,64)                            3386.85897048336 	(obj:0)
STE(4,65)                            4383.62497381665 	(obj:0)
STE(4,66)                            5601.07717714998 	(obj:0)
STE(4,67)                             115.54635948338 	(obj:0)
STE(4,68)                            1112.31236281667 	(obj:0)
STE(4,69)                               2329.76456615 	(obj:0)
STE(4,70)                            1112.31236281667 	(obj:0)
STE(4,71)                            2109.07836614996 	(obj:0)
STE(4,72)                            3326.53056948329 	(obj:0)
STE(4,73)                            2329.76456615005 	(obj:0)
STE(4,74)                            3326.53056948334 	(obj:0)
STE(4,75)                            4543.98277281667 	(obj:0)
STE(4,76)                            1112.31236281667 	(obj:0)
STE(4,77)                            2109.07836614996 	(obj:0)
STE(4,78)                            3326.53056948329 	(obj:0)
STE(4,79)                            2109.07836614996 	(obj:0)
STE(4,80)                            3105.84436948325 	(obj:0)
STE(4,81)                            4323.29657281663 	(obj:0)
STE(4,82)                             3326.5305694834 	(obj:0)
STE(4,83)                            4323.29657281669 	(obj:0)
STE(4,84)                            5540.74877615007 	(obj:0)
STE(4,85)                            2024.87569666666 	(obj:0)
STE(4,86)                            3021.64169999995 	(obj:0)
STE(4,87)                            4239.09390333328 	(obj:0)
STE(4,88)                            3021.64169999993 	(obj:0)
STE(4,89)                            4018.40770333324 	(obj:0)
STE(4,90)                            5235.85990666657 	(obj:0)
STE(4,91)                            4239.09390333333 	(obj:0)
STE(4,92)                            5235.85990666662 	(obj:0)
STE(4,93)                            6453.31210999995 	(obj:0)
STE(4,94)                            1156.46799333342 	(obj:0)
STE(4,95)                            2153.23399666671 	(obj:0)
STE(4,96)                            3370.68620000004 	(obj:0)
STE(4,97)                            2153.23399666671 	(obj:0)
STE(4,98)                                        3150 	(obj:0)
STE(4,99)                            4367.45220333333 	(obj:0)
STE(4,100)                           3370.68620000009 	(obj:0)
STE(4,101)                           4367.45220333338 	(obj:0)
STE(4,102)                           5584.90440666671 	(obj:0)
STE(4,103)                           2153.23399666671 	(obj:0)
STE(4,104)                                       3150 	(obj:0)
STE(4,105)                           4367.45220333333 	(obj:0)
STE(4,106)                                       3150 	(obj:0)
STE(4,107)                           4146.76600333329 	(obj:0)
STE(4,108)                           5364.21820666662 	(obj:0)
STE(4,109)                           4367.45220333338 	(obj:0)
STE(4,110)                           5364.21820666667 	(obj:0)
STE(4,111)                                 6581.67041 	(obj:0)
STE(4,112)                            3065.7973305167 	(obj:0)
STE(4,113)                           4062.56333384999 	(obj:0)
STE(4,114)                           5280.01553718332 	(obj:0)
STE(4,115)                           4062.56333384999 	(obj:0)
STE(4,116)                           5059.32933718328 	(obj:0)
STE(4,117)                           6276.78154051661 	(obj:0)
STE(4,118)                           5280.01553718337 	(obj:0)
STE(4,119)                           6276.78154051666 	(obj:0)
STE(4,120)                           7494.23374384999 	(obj:0)
y1(4,100)                            1992.79638599996 	(obj:0)
y1(4,101)                                 1095.706983 	(obj:0)
y1(4,103)                            1992.79638599996 	(obj:0)
y1(4,104)                                 1095.706983 	(obj:0)
y1(4,106)                            1992.79638599996 	(obj:0)
y1(4,107)                                 1095.706983 	(obj:0)
y1(4,109)                            1992.79638599996 	(obj:0)
y1(4,110)                                 1095.706983 	(obj:0)
y1(4,112)                            1992.79638599996 	(obj:0)
y1(4,113)                                 1095.706983 	(obj:0)
y1(4,115)                            1992.79638599996 	(obj:0)
y1(4,116)                                 1095.706983 	(obj:0)
y1(4,118)                            1992.79638599996 	(obj:0)
y1(4,119)                                 1095.706983 	(obj:0)
AVE(3)                                3399.3204933139 	(obj:0)
AVE(4)                               3353.21046544222 	(obj:0)
WG(3)                                 3399.3204933139 	(obj:10)
WG(4)                                3353.21046544222 	(obj:10)
BG(1)                                1948.43093276573 	(obj:10)
BG(2)                                3377.84999999995 	(obj:10)
BG(3)                                1096.59785668609 	(obj:10)
BG(4)                                1142.70788455777 	(obj:10)
WB(1)                                3134.60043707458 	(obj:0)
AVE(1)                               3134.60043707458 	(obj:0)
WB(2)                                3326.45170866638 	(obj:0)
AVE(2)                               3326.45170866643 	(obj:0)
y1(2,4)                              897.089402999962 	(obj:0)
y1(2,7)                              897.089402999962 	(obj:0)
y1(2,10)                             897.089402999962 	(obj:0)
y1(3,13)                                  1992.796386 	(obj:0)
y1(3,14)                             1095.70698300004 	(obj:0)
y1(3,16)                                  1992.796386 	(obj:0)
y1(3,17)                             1095.70698300004 	(obj:0)
y1(3,19)                                  1992.796386 	(obj:0)
y1(3,20)                             1095.70698300004 	(obj:0)
y1(3,22)                                  1992.796386 	(obj:0)
y1(3,23)                             1095.70698300004 	(obj:0)
y1(3,25)                                  1992.796386 	(obj:0)
y1(3,26)                             1095.70698300004 	(obj:0)
y1(3,28)                                  1992.796386 	(obj:0)
y1(3,29)                             1095.70698300004 	(obj:0)
y1(3,31)                                  1992.796386 	(obj:0)
y1(3,32)                             1095.70698300004 	(obj:0)
y1(3,34)                                  1992.796386 	(obj:0)
y1(3,35)                             1095.70698300004 	(obj:0)
y1(3,37)                                  1992.796386 	(obj:0)
y1(3,38)                             1095.70698300004 	(obj:0)
y1(4,40)                             1992.79638599996 	(obj:0)
y1(4,41)                                  1095.706983 	(obj:0)
y1(4,43)                             1992.79638599996 	(obj:0)
y1(4,44)                                  1095.706983 	(obj:0)
y1(4,46)                             1992.79638599996 	(obj:0)
y1(4,47)                                  1095.706983 	(obj:0)
y1(4,49)                             1992.79638599996 	(obj:0)
y1(4,50)                                  1095.706983 	(obj:0)
y1(4,52)                             1992.79638599996 	(obj:0)
y1(4,53)                                  1095.706983 	(obj:0)
y1(4,55)                             1992.79638599996 	(obj:0)
y1(4,56)                                  1095.706983 	(obj:0)
y1(4,58)                             1992.79638599996 	(obj:0)
y1(4,59)                                  1095.706983 	(obj:0)
y1(4,61)                             1992.79638599996 	(obj:0)
y1(4,62)                                  1095.706983 	(obj:0)
y1(4,64)                             1992.79638599996 	(obj:0)
y1(4,65)                                  1095.706983 	(obj:0)
y1(4,67)                             1992.79638599996 	(obj:0)
y1(4,68)                                  1095.706983 	(obj:0)
y1(4,70)                             1992.79638599996 	(obj:0)
y1(4,71)                                  1095.706983 	(obj:0)
y1(4,73)                             1992.79638599996 	(obj:0)
y1(4,74)                                  1095.706983 	(obj:0)
y1(4,76)                             1992.79638599996 	(obj:0)
y1(4,77)                                  1095.706983 	(obj:0)
y1(4,79)                             1992.79638599996 	(obj:0)
y1(4,80)                                  1095.706983 	(obj:0)
y1(4,82)                             1992.79638599996 	(obj:0)
y1(4,83)                                  1095.706983 	(obj:0)
y1(4,85)                             1992.79638599996 	(obj:0)
y1(4,86)                                  1095.706983 	(obj:0)
y1(4,88)                                  1992.796386 	(obj:0)
y1(4,89)                                  1095.706983 	(obj:0)
y1(4,91)                             1992.79638599996 	(obj:0)
y1(4,92)                                  1095.706983 	(obj:0)
y1(4,94)                             1992.79638599996 	(obj:0)
y1(4,95)                                  1095.706983 	(obj:0)
y1(4,97)                             1992.79638599996 	(obj:0)
y1(4,98)                                  1095.706983 	(obj:0)
y2(1,1)                              425.804045578943 	(obj:0)
y2(1,2)                               1322.8934485789 	(obj:0)
y2(1,3)                              2418.60043157894 	(obj:0)
y2(2,6)                              960.592982999987 	(obj:0)
y2(2,9)                              960.592982999987 	(obj:0)
y2(2,12)                             960.592982999987 	(obj:0)
